NAME : instances/clustered-mixed-tsp/instance-46.tsp
COMMENT : No Comment
TYPE : TSP
DIMENSION: 49
EDGE_WEIGHT_TYPE : EUC_2D
NODE_COORD_SECTION
1 186 719 
2 47 1282 
3 160 1324 
4 160 721 
5 61 1153 
6 190 651 
7 1153 -24 
8 130 761 
9 -33 34 
10 171 722 
11 339 1172 
12 77 118 
13 -38 79 
14 -5 1281 
15 165 1311 
16 397 1197 
17 141 718 
18 388 1070 
19 -2 29 
20 22 125 
21 48 1166 
22 6 80 
23 31 1222 
24 6 1320 
25 1448 247 
26 1281 1529 
27 107 136 
28 337 1181 
29 -15 30 
30 1602 129 
31 32 785 
32 459 1047 
33 60 33 
34 1 1289 
35 1462 230 
36 38 1295 
37 -63 33 
38 54 767 
39 31 1290 
40 482 1191 
41 79 652 
42 -33 102 
43 166 644 
44 51 692 
45 127 1299 
46 -4 1302 
47 25 788 
48 -33 25 
49 107 690 
EOF
